# Objective value = 2.9941602667270183e+02
x[0] 0
x[1] 1
x[2] 1
x[3] 1
x[4] 1
x[5] 1
x[6] 1
x[7] 0
x[8] 1
x[9] 0
x[10] 0
x[11] 0
x[12] 1
x[13] 1
x[14] 0
x[15] 1
x[16] 0
x[17] 0
x[18] 0
x[19] 1
x[20] 0
x[21] 1
x[22] 1
x[23] 1
x[24] 1
x[25] 1
x[26] 0
x[27] 1
x[28] 1
x[29] 1
x[30] 0
x[31] 0
x[32] 1
x[33] 1
x[34] 0
x[35] 0
x[36] 1
x[37] 0
x[38] 0
x[39] 0
x[40] 0
x[41] 0
x[42] 0
x[43] 1
x[44] 0
x[45] 0
x[46] 0
x[47] 1
x[48] 0
x[49] 1
x[50] 0
x[51] 1
x[52] 0
x[53] 0
x[54] 0
x[55] 1
x[56] 0
x[57] 1
x[58] 1
x[59] 0
x[60] 1
x[61] 0
x[62] 1
x[63] 0
x[64] 0
x[65] 0
x[66] 1
x[67] 0
x[68] 0
x[69] 1
x[70] 1
x[71] 0
x[72] 0
x[73] 1
x[74] 1
x[75] 0
x[76] 0
x[77] 0
x[78] 1
x[79] 1
x[80] 1
x[81] 0
x[82] 1
x[83] 0
x[84] 0
x[85] 0
x[86] 1
x[87] 1
x[88] 0
x[89] 0
x[90] 0
x[91] 0
x[92] 0
x[93] 0
x[94] 0
x[95] 1
x[96] 0
x[97] 0
x[98] 0
x[99] 0
x[100] 1
x[101] 0
x[102] 1
x[103] 1
x[104] 1
x[105] 0
x[106] 0
x[107] 0
x[108] 0
x[109] 1
x[110] 1
x[111] 1
x[112] 0
x[113] 0
x[114] 0
x[115] 1
x[116] 1
x[117] 1
x[118] 0
x[119] 1
x[120] 1
x[121] 1
x[122] 1
x[123] 0
x[124] 0
x[125] 0
x[126] 0
x[127] 0
x[128] 1
x[129] 0
x[130] 1
x[131] 0
x[132] 1
x[133] 1
x[134] 0
x[135] 1
x[136] 0
x[137] 0
x[138] 0
x[139] 0
x[140] 1
x[141] 1
x[142] 1
x[143] 1
x[144] 1
x[145] 0
x[146] 0
x[147] 0
x[148] 1
x[149] 1
x[150] 1
x[151] 0
x[152] 0
x[153] 0
x[154] 0
x[155] 1
x[156] 0
x[157] 1
x[158] 0
x[159] 0
x[160] 1
x[161] 1
x[162] 0
x[163] 0
x[164] 0
x[165] 1
x[166] 1
x[167] 0
x[168] 1
x[169] 1
x[170] 0
x[171] 0
x[172] 0
x[173] 1
x[174] 1
x[175] 0
x[176] 0
x[177] 1
x[178] 1
x[179] 0
x[180] 0
x[181] 1
x[182] 1
x[183] 0
x[184] 1
x[185] 1
x[186] 1
x[187] 0
x[188] 1
x[189] 0
x[190] 0
x[191] 0
x[192] 1
x[193] 0
x[194] 1
x[195] 0
x[196] 0
x[197] 1
x[198] 0
x[199] 1
x[200] 0
x[201] 1
x[202] 1
x[203] 0
x[204] 1
x[205] 1
x[206] 0
x[207] 1
x[208] 1
x[209] 1
x[210] 0
x[211] 0
x[212] 0
x[213] 1
x[214] 0
x[215] 0
x[216] 0
x[217] 1
x[218] 0
x[219] 0
x[220] 1
x[221] 0
x[222] 1
x[223] 0
x[224] 1
x[225] 0
x[226] 1
x[227] 0
x[228] 0
x[229] 1
x[230] 0
x[231] 0
x[232] 0
x[233] 1
x[234] 0
x[235] 0
x[236] 0
x[237] 1
x[238] 0
x[239] 1
x[240] 0
x[241] 0
x[242] 1
x[243] 0
x[244] 1
x[245] 1
x[246] 0
x[247] 0
x[248] 0
x[249] 0
x[250] 1
x[251] 1
x[252] 1
x[253] 1
x[254] 1
x[255] 0
x[256] 0
x[257] 0
x[258] 0
x[259] 0
x[260] 1
x[261] 1
x[262] 0
x[263] 1
x[264] 1
x[265] 0
x[266] 0
x[267] 0
x[268] 1
x[269] 0
x[270] 1
x[271] 1
x[272] 0
x[273] 0
x[274] 1
x[275] 0
x[276] 1
x[277] 0
x[278] 1
x[279] 1
x[280] 0
x[281] 0
x[282] 0
x[283] 0
x[284] 1
x[285] 1
x[286] 1
x[287] 1
x[288] 1
x[289] 0
x[290] 0
x[291] 0
x[292] 1
x[293] 1
x[294] 1
x[295] 1
x[296] 0
x[297] 0
x[298] 0
x[299] 1
x[300] 0
x[301] 1
x[302] 0
x[303] 0
x[304] 0
x[305] 1
x[306] 1
x[307] 1
x[308] 0
x[309] 0
x[310] 0
x[311] 1
x[312] 1
x[313] 0
x[314] 1
x[315] 1
x[316] 1
x[317] 1
x[318] 0
x[319] 0
x[320] 0
x[321] 0
x[322] 0
x[323] 1
x[324] 0
x[325] 1
x[326] 0
x[327] 0
x[328] 0
x[329] 0
x[330] 0
x[331] 1
x[332] 0
x[333] 0
x[334] 1
x[335] 1
x[336] 1
x[337] 0
x[338] 1
x[339] 1
x[340] 0
x[341] 0
x[342] 0
x[343] 0
x[344] 0
x[345] 0
x[346] 1
x[347] 1
x[348] 0
x[349] 0
x[350] 0
x[351] 1
x[352] 0
x[353] 1
x[354] 1
x[355] 1
x[356] 0
x[357] 1
x[358] 0
x[359] 0
x[360] 0
x[361] 0
x[362] 1
x[363] 0
x[364] 1
x[365] 0
x[366] 0
x[367] 0
x[368] 0
x[369] 0
x[370] 1
x[371] 0
x[372] 1
x[373] 0
x[374] 0
x[375] 0
x[376] 1
x[377] 0
x[378] 1
x[379] 0
x[380] 1
x[381] 0
x[382] 1
x[383] 0
x[384] 1
x[385] 1
x[386] 1
x[387] 0
x[388] 0
x[389] 0
x[390] 1
x[391] 1
x[392] 0
x[393] 0
x[394] 0
x[395] 0
x[396] 1
x[397] 0
x[398] 1
x[399] 1
x[400] 1
x[401] 1
x[402] 0
x[403] 0
x[404] 1
x[405] 1
x[406] 0
x[407] 1
x[408] 0
x[409] 1
x[410] 0
x[411] 0
x[412] 1
x[413] 1
x[414] 1
x[415] 0
x[416] 1
x[417] 1
x[418] 0
x[419] 1
x[420] 1
x[421] 1
x[422] 0
x[423] 0
x[424] 0
x[425] 1
x[426] 0
x[427] 0
x[428] 0
x[429] 0
x[430] 1
x[431] 1
x[432] 0
x[433] 1
x[434] 1
x[435] 0
x[436] 0
x[437] 1
x[438] 1
x[439] 1
x[440] 1
x[441] 1
x[442] 1
x[443] 1
x[444] 0
x[445] 0
x[446] 0
x[447] 0
x[448] 1
x[449] 0
x[450] 1
x[451] 1
x[452] 1
x[453] 1
x[454] 0
x[455] 0
x[456] 0
x[457] 1
x[458] 0
x[459] 1
x[460] 1
x[461] 1
x[462] 1
x[463] 1
x[464] 0
x[465] 1
x[466] 0
x[467] 0
x[468] 1
x[469] 0
x[470] 0
x[471] 1
x[472] 1
x[473] 1
x[474] 1
x[475] 1
x[476] 1
x[477] 0
x[478] 1
x[479] 1
x[480] 1
x[481] 1
x[482] 1
x[483] 1
x[484] 1
x[485] 0
x[486] 0
x[487] 0
x[488] 0
x[489] 0
x[490] 0
x[491] 1
x[492] 0
x[493] 1
x[494] 1
x[495] 0
x[496] 0
x[497] 0
x[498] 1
x[499] 0
x[500] 1
x[501] 0
x[502] 1
x[503] 1
x[504] 0
x[505] 0
x[506] 0
x[507] 1
x[508] 0
x[509] 0
x[510] 1
x[511] 1
x[512] 1
x[513] 0
x[514] 1
x[515] 0
x[516] 0
x[517] 0
x[518] 0
x[519] 1
x[520] 1
x[521] 1
x[522] 0
x[523] 1
x[524] 1
x[525] 1
x[526] 0
x[527] 1
x[528] 1
x[529] 0
x[530] 1
x[531] 0
x[532] 1
x[533] 0
x[534] 1
x[535] 0
x[536] 0
x[537] 0
x[538] 0
x[539] 1
x[540] 0
x[541] 0
x[542] 0
x[543] 1
x[544] 0
x[545] 0
x[546] 1
x[547] 1
x[548] 0
x[549] 1
x[550] 1
x[551] 1
x[552] 1
x[553] 1
x[554] 1
x[555] 0
x[556] 1
x[557] 1
x[558] 0
x[559] 1
x[560] 0
x[561] 0
x[562] 0
x[563] 0
x[564] 1
x[565] 0
x[566] 0
x[567] 1
x[568] 0
x[569] 0
x[570] 1
x[571] 1
x[572] 1
x[573] 0
x[574] 0
x[575] 1
x[576] 0
x[577] 1
x[578] 0
x[579] 1
x[580] 1
x[581] 1
x[582] 0
x[583] 1
x[584] 1
x[585] 1
x[586] 0
x[587] 1
x[588] 0
x[589] 1
x[590] 1
x[591] 1
x[592] 1
x[593] 0
x[594] 1
x[595] 1
x[596] 0
x[597] 1
x[598] 1
x[599] 1
x[600] 1
x[601] 1
x[602] 0
x[603] 1
x[604] 0
x[605] 1
x[606] 0
x[607] 0
x[608] 0
x[609] 0
x[610] 0
x[611] 1
x[612] 0
x[613] 1
x[614] 1
x[615] 0
x[616] 1
x[617] 0
x[618] 0
x[619] 0
x[620] 1
x[621] 0
x[622] 0
x[623] 0
x[624] 0
x[625] 0
x[626] 1
x[627] 0
x[628] 0
x[629] 1
x[630] 0
x[631] 1
x[632] 0
x[633] 0
x[634] 1
x[635] 0
x[636] 1
x[637] 1
x[638] 1
x[639] 0
x[640] 1
x[641] 0
x[642] 0
x[643] 1
x[644] 0
x[645] 0
x[646] 1
x[647] 0
x[648] 0
x[649] 1
x[650] 1
x[651] 0
x[652] 1
x[653] 1
x[654] 1
x[655] 1
x[656] 1
x[657] 1
x[658] 1
x[659] 1
x[660] 1
x[661] 1
x[662] 1
x[663] 1
x[664] 1
x[665] 0
x[666] 0
x[667] 1
x[668] 0
x[669] 0
x[670] 1
x[671] 0
x[672] 1
x[673] 1
x[674] 0
x[675] 0
x[676] 0
x[677] 0
x[678] 1
x[679] 0
x[680] 1
x[681] 0
x[682] 0
x[683] 0
x[684] 0
x[685] 0
x[686] 1
x[687] 0
x[688] 1
x[689] 0
x[690] 1
x[691] 0
x[692] 1
x[693] 1
x[694] 0
x[695] 1
x[696] 1
x[697] 0
x[698] 1
x[699] 1
x[700] 0
x[701] 0
x[702] 0
x[703] 1
x[704] 0
x[705] 1
x[706] 1
x[707] 0
x[708] 1
x[709] 1
x[710] 1
x[711] 0
x[712] 0
x[713] 1
x[714] 0
x[715] 0
x[716] 1
x[717] 0
x[718] 0
x[719] 0
x[720] 0
x[721] 1
x[722] 0
x[723] 1
x[724] 1
x[725] 1
x[726] 0
x[727] 0
x[728] 0
x[729] 1
x[730] 1
x[731] 1
x[732] 1
x[733] 1
x[734] 0
x[735] 0
x[736] 0
x[737] 0
x[738] 0
x[739] 1
x[740] 0
x[741] 0
x[742] 0
x[743] 0
x[744] 0
x[745] 0
x[746] 0
x[747] 0
x[748] 1
x[749] 1
x[750] 0
x[751] 1
x[752] 1
x[753] 0
x[754] 1
x[755] 0
x[756] 1
x[757] 0
x[758] 1
x[759] 1
x[760] 1
x[761] 1
x[762] 0
x[763] 0
x[764] 1
x[765] 0
x[766] 1
x[767] 1
x[768] 0
x[769] 1
x[770] 0
x[771] 1
x[772] 1
x[773] 1
x[774] 0
x[775] 1
x[776] 0
x[777] 1
x[778] 1
x[779] 1
x[780] 1
x[781] 1
x[782] 0
x[783] 0
x[784] 1
x[785] 1
x[786] 0
x[787] 1
x[788] 0
x[789] 1
x[790] 0
x[791] 0
x[792] 1
x[793] 1
x[794] 1
x[795] 1
x[796] 0
x[797] 0
x[798] 1
x[799] 0
x[800] 0
x[801] 1
x[802] 0
x[803] 1
x[804] 0
x[805] 0
x[806] 0
x[807] 1
x[808] 1
x[809] 0
x[810] 1
x[811] 1
x[812] 1
x[813] 0
x[814] 0
x[815] 1
x[816] 0
x[817] 1
x[818] 0
x[819] 1
x[820] 0
x[821] 1
x[822] 1
x[823] 1
x[824] 0
x[825] 0
x[826] 0
x[827] 0
x[828] 1
x[829] 1
x[830] 1
x[831] 1
x[832] 0
x[833] 0
x[834] 0
x[835] 0
x[836] 0
x[837] 1
x[838] 0
x[839] 0
x[840] 0
x[841] 0
x[842] 0
x[843] 1
x[844] 1
x[845] 0
x[846] 1
x[847] 1
x[848] 1
x[849] 0
x[850] 1
x[851] 0
x[852] 1
x[853] 1
x[854] 1
x[855] 1
x[856] 1
x[857] 0
x[858] 0
x[859] 0
x[860] 1
x[861] 0
x[862] 0
x[863] 1
x[864] 0
x[865] 1
x[866] 1
x[867] 1
x[868] 0
x[869] 1
x[870] 1
x[871] 0
x[872] 1
x[873] 1
x[874] 1
x[875] 0
x[876] 0
x[877] 0
x[878] 1
x[879] 0
x[880] 1
x[881] 0
x[882] 0
x[883] 0
x[884] 0
x[885] 1
x[886] 0
x[887] 0
x[888] 0
x[889] 0
x[890] 0
x[891] 1
x[892] 0
x[893] 1
x[894] 0
x[895] 0
x[896] 1
x[897] 1
x[898] 1
x[899] 0
x[900] 1
x[901] 1
x[902] 1
x[903] 1
x[904] 1
x[905] 0
x[906] 1
x[907] 0
x[908] 1
x[909] 0
x[910] 0
x[911] 1
x[912] 0
x[913] 1
x[914] 1
x[915] 1
x[916] 1
x[917] 0
x[918] 1
x[919] 1
x[920] 1
x[921] 1
x[922] 1
x[923] 0
x[924] 1
x[925] 0
x[926] 0
x[927] 0
x[928] 1
x[929] 1
x[930] 1
x[931] 1
x[932] 0
x[933] 1
x[934] 0
x[935] 0
x[936] 1
x[937] 0
x[938] 1
x[939] 1
x[940] 1
x[941] 1
x[942] 0
x[943] 0
x[944] 1
x[945] 1
x[946] 0
x[947] 1
x[948] 1
x[949] 0
x[950] 1
x[951] 1
x[952] 1
x[953] 1
x[954] 0
x[955] 1
x[956] 1
x[957] 0
x[958] 1
x[959] 1
x[960] 1
x[961] 1
x[962] 0
x[963] 1
x[964] 0
x[965] 0
x[966] 1
x[967] 0
x[968] 0
x[969] 0
x[970] 1
x[971] 1
x[972] 1
x[973] 0
x[974] 0
x[975] 0
x[976] 1
x[977] 0
x[978] 0
x[979] 1
x[980] 1
x[981] 0
x[982] 0
x[983] 0
x[984] 1
x[985] 0
x[986] 0
x[987] 1
x[988] 1
x[989] 0
x[990] 0
x[991] 0
x[992] 0
x[993] 0
x[994] 0
x[995] 0
x[996] 0
x[997] 0
x[998] 0
x[999] 0
